(set-logic QF_BV)
(declare-fun _substvar_325_ () (_ BitVec 8))
(declare-fun _substvar_310_ () (_ BitVec 8))
(declare-fun _substvar_200_ () (_ BitVec 16))
(declare-fun _substvar_316_ () (_ BitVec 8))
(declare-fun _substvar_333_ () (_ BitVec 8))
(assert (let ( (?v_14 ((_ zero_extend 24) _substvar_310_)) (?v_10 ((_ zero_extend 24) _substvar_316_)) (?v_3 ((_ zero_extend 24) _substvar_325_)) (?v_1 ((_ zero_extend 24) _substvar_333_))) (let ((?v_0 (bvadd ?v_1 (_ bv1 32)))) (let ((?v_2 (bvadd (bvadd ?v_0 (_ bv4269308 32)) (_ bv0 32)))) (let ((?v_4 (bvadd ?v_2 (_ bv6 32)))) (let ((?v_6 (bvadd (bvadd ?v_4 (bvadd ?v_3 (_ bv1 32))) (_ bv2 32)))) (let ((?v_5 (bvadd ?v_6 ((_ zero_extend 16) _substvar_200_)))) (let ((?v_8 (bvadd ?v_5 (_ bv6 32)))) (let ((?v_9 (bvadd ?v_8 (_ bv0 32)))) (let ((?v_13 (bvadd ?v_9 (_ bv2 32)))) (let ((?v_12 (bvadd ?v_13 ?v_10))) (let ((?v_18 (bvadd (bvadd ?v_12 (_ bv1 32)) ?v_14))) (let ((?v_19 (bvadd (bvadd ?v_18 (_ bv1 32)) (_ bv0 32)))) (and true true true true (bvsle (_ bv1040 32) (bvsub ?v_19 (_ bv4269119 32))) true true true true true true true true true true true true true true true true true true true true true (bvule (bvadd ?v_19 (_ bv2 32)) (_ bv4270134 32))))))))))))))))
(check-sat)
(exit)
